certificates/rado_a9_c51_N19.cnf
c Rad2 upper bound instance: x1 + 9*x2 - x3 = 51, interval [1,19]
p cnf 19 80
1 4 6 0
-1 -4 -6 0
1 7 13 0
-1 -7 -13 0
2 5 6 0
-2 -5 -6 0
2 7 14 0
-2 -7 -14 0
3 6 0
-3 -6 0
3 7 15 0
-3 -7 -15 0
4 6 7 0
-4 -6 -7 0
4 7 16 0
-4 -7 -16 0
5 6 8 0
-5 -6 -8 0
5 7 17 0
-5 -7 -17 0
6 9 0
-6 -9 0
6 7 18 0
-6 -7 -18 0
1 5 7 0
-1 -5 -7 0
6 7 10 0
-6 -7 -10 0
7 19 0
-7 -19 0
2 5 8 0
-2 -5 -8 0
6 8 11 0
-6 -8 -11 0
3 5 9 0
-3 -5 -9 0
6 9 12 0
-6 -9 -12 0
4 5 10 0
-4 -5 -10 0
6 10 13 0
-6 -10 -13 0
5 11 0
-5 -11 0
6 11 14 0
-6 -11 -14 0
5 6 12 0
-5 -6 -12 0
6 12 15 0
-6 -12 -15 0
5 7 13 0
-5 -7 -13 0
6 13 16 0
-6 -13 -16 0
5 8 14 0
-5 -8 -14 0
6 14 17 0
-6 -14 -17 0
5 9 15 0
-5 -9 -15 0
6 15 18 0
-6 -15 -18 0
1 4 16 0
-1 -4 -16 0
5 10 16 0
-5 -10 -16 0
6 16 19 0
-6 -16 -19 0
2 4 17 0
-2 -4 -17 0
5 11 17 0
-5 -11 -17 0
3 4 18 0
-3 -4 -18 0
5 12 18 0
-5 -12 -18 0
4 19 0
-4 -19 0
5 13 19 0
-5 -13 -19 0
