certificates/rado_a9_c51_N19.drat
-19 0
7 0
4 0
-16 0
-6 0
0
